100 36 100
92 19 95 97 90 60 50 92 77 9 47 29 36 39 77 89 57 13 26 66 20 19 22 6 13 97 84 55 51 73 68 95 92 63 92 34 75 94 26 52 56 73 33 44 64 62 34 74 76 12 40 48 31 63 54 96 12 38 51 15 63 19 11 7 34 55 41 10 50 67 14 6 93 50 9 62 84 83 38 49 24 38 80 39 93 77 3 83 80 71 47 82 6 86 37 48 48 87 67 63 
